550 2350 1951 1101 1956 1056 2366 916 2417 1867 1118 2321 2223 2326 1978 2128 2242 
550 2350 1951 1101 1952 2302 2366 916 2417 1867 1118 2223 2326 1978 2128 2242 
550 2350 1951 901 1962 1062 2366 916 2417 1867 2321 2223 2326 1978 2128 2242 
550 2350 1951 901 1952 2302 2366 916 2417 1867 2223 2326 1978 2128 2242 
550 2350 1951 901 1952 2302 2366 916 2417 1867 2223 2326 1978 2128 2242 
550 2350 1951 901 1952 2302 2366 916 2417 1867 2223 2326 1978 2128 2242 
550 2350 1951 901 1956 1056 2366 916 2417 1867 2321 2223 2326 1978 2128 2242 
550 2350 1951 901 1952 2302 2366 916 2417 1867 2223 2326 1978 2128 2242 
550 2350 1951 901 1952 2302 2366 916 2417 1867 2223 2326 1978 2128 2242 
550 2350 1951 901 1952 2302 2366 916 2417 1867 2223 2326 1978 2128 2242 
550 2350 1951 901 1956 1056 2366 916 2417 1867 2321 2223 2326 1978 2128 2242 
550 2350 1951 901 1956 1056 2366 916 2417 1867 2321 2223 2326 1978 2128 2242 
550 2350 1951 901 1952 2302 2366 916 2417 1867 2223 2326 1978 2128 2242 
550 2350 1951 901 1956 1056 2366 916 2417 1867 2321 2223 2326 1978 2128 2242 
550 2350 1951 901 1956 1056 2366 916 2417 1867 2321 2223 2326 1978 2128 2242 
550 2350 1951 901 1952 2302 2366 916 2417 1867 2223 2326 1978 2128 2242 
550 2350 1951 901 1952 2302 2366 916 2417 1867 2223 2326 1978 2128 2242 
550 2350 1951 1101 1956 1056 2366 916 2417 1867 1118 2321 2223 2326 1978 2128 2242 
550 2350 1951 901 1952 2302 2366 916 2417 1867 2223 2326 1978 2128 2242 
550 2350 1951 901 1952 2302 2366 916 2417 1867 2223 2326 1978 2128 2242 
